(declare-const state-left (Array Int CompositionState-Left)
)

(declare-const state-right (Array Int CompositionState-Right)
)

(declare-const state-length-left-old Int)
(declare-const state-length-left-new Int)
(declare-const state-length-right-old Int)
(declare-const state-length-right-new Int)
(declare-const arg-GETAOUT-h Int)
(declare-const arg-SETBIT-h Int)
(declare-const arg-SETBIT-zz Bool)
(declare-const arg-GBLG-h Int)
(declare-const arg-GBLG-l Int)
(declare-const arg-GBLG-r Int)
(declare-const arg-GBLG-op (Array (Tuple2 Bool Bool)
 (Maybe Bool)
)
)
(declare-const arg-GBLG-j Int)
(declare-const arg-GETKEYSIN-h Int)
(declare-const return-left-keys_top-GETAOUT Return_Left_keys_top_GETAOUT)
(assert (= return-left-keys_top-GETAOUT (oracle-Left-keys_top-GETAOUT state-left state-length-left-old arg-GETAOUT-h)
)
)
(declare-const return-left-keys_top-SETBIT Return_Left_keys_top_SETBIT)
(assert (= return-left-keys_top-SETBIT (oracle-Left-keys_top-SETBIT state-left state-length-left-old arg-SETBIT-h arg-SETBIT-zz)
)
)
(declare-const return-left-gate-GBLG Return_Left_gate_GBLG)
(assert (= return-left-gate-GBLG (oracle-Left-gate-GBLG state-left state-length-left-old arg-GBLG-h arg-GBLG-l arg-GBLG-r arg-GBLG-op arg-GBLG-j)
)
)
(declare-const return-left-keys_bottom-GETKEYSIN Return_Left_keys_bottom_GETKEYSIN)
(assert (= return-left-keys_bottom-GETKEYSIN (oracle-Left-keys_bottom-GETKEYSIN state-left state-length-left-old arg-GETKEYSIN-h)
)
)
(declare-const return-right-keys_top-GETAOUT Return_Right_keys_top_GETAOUT)
(assert (= return-right-keys_top-GETAOUT (oracle-Right-keys_top-GETAOUT state-right state-length-right-old arg-GETAOUT-h)
)
)
(declare-const return-right-keys_top-SETBIT Return_Right_keys_top_SETBIT)
(assert (= return-right-keys_top-SETBIT (oracle-Right-keys_top-SETBIT state-right state-length-right-old arg-SETBIT-h arg-SETBIT-zz)
)
)
(declare-const return-right-simgate-GBLG Return_Right_simgate_GBLG)
(assert (= return-right-simgate-GBLG (oracle-Right-simgate-GBLG state-right state-length-right-old arg-GBLG-h arg-GBLG-l arg-GBLG-r arg-GBLG-op arg-GBLG-j)
)
)
(declare-const return-right-keys_bottom-GETKEYSIN Return_Right_keys_bottom_GETKEYSIN)
(assert (= return-right-keys_bottom-GETKEYSIN (oracle-Right-keys_bottom-GETKEYSIN state-right state-length-right-old arg-GETKEYSIN-h)
)
)
(declare-const randctr-left-1 Int)
(assert (= randctr-left-1 (composition-rand-Left-1 (select state-left state-length-left-old)
)
)
)
(declare-const randval-left-1 Bits_n)
(assert (= randval-left-1 (__sample-rand-Left-Bits_n 1 (+ 0 randctr-left-1)
)
)
)
(declare-const randctr-left-2 Int)
(assert (= randctr-left-2 (composition-rand-Left-2 (select state-left state-length-left-old)
)
)
)
(declare-const randval-left-2 Bits_n)
(assert (= randval-left-2 (__sample-rand-Left-Bits_n 2 (+ 0 randctr-left-2)
)
)
)
(declare-const randctr-left-3 Int)
(assert (= randctr-left-3 (composition-rand-Left-3 (select state-left state-length-left-old)
)
)
)
(declare-const randval-left-3 Bits_n)
(assert (= randval-left-3 (__sample-rand-Left-Bits_n 3 (+ 0 randctr-left-3)
)
)
)
(declare-const randctr-left-4 Int)
(assert (= randctr-left-4 (composition-rand-Left-4 (select state-left state-length-left-old)
)
)
)
(declare-const randval-left-4 Bits_n)
(assert (= randval-left-4 (__sample-rand-Left-Bits_n 4 (+ 0 randctr-left-4)
)
)
)
(declare-const randctr-left-5 Int)
(assert (= randctr-left-5 (composition-rand-Left-5 (select state-left state-length-left-old)
)
)
)
(declare-const randval-left-5 Bits_n)
(assert (= randval-left-5 (__sample-rand-Left-Bits_n 5 (+ 0 randctr-left-5)
)
)
)
(declare-const randctr-left-6 Int)
(assert (= randctr-left-6 (composition-rand-Left-6 (select state-left state-length-left-old)
)
)
)
(declare-const randval-left-6 Bits_n)
(assert (= randval-left-6 (__sample-rand-Left-Bits_n 6 (+ 0 randctr-left-6)
)
)
)
(declare-const randctr-left-7 Int)
(assert (= randctr-left-7 (composition-rand-Left-7 (select state-left state-length-left-old)
)
)
)
(declare-const randval-left-7 Bits_n)
(assert (= randval-left-7 (__sample-rand-Left-Bits_n 7 (+ 0 randctr-left-7)
)
)
)
(declare-const randctr-left-8 Int)
(assert (= randctr-left-8 (composition-rand-Left-8 (select state-left state-length-left-old)
)
)
)
(declare-const randval-left-8 Bits_n)
(assert (= randval-left-8 (__sample-rand-Left-Bits_n 8 (+ 0 randctr-left-8)
)
)
)
(declare-const randctr-left-9 Int)
(assert (= randctr-left-9 (composition-rand-Left-9 (select state-left state-length-left-old)
)
)
)
(declare-const randval-left-9 Bits_n)
(assert (= randval-left-9 (__sample-rand-Left-Bits_n 9 (+ 0 randctr-left-9)
)
)
)
(declare-const randctr-left-10 Int)
(assert (= randctr-left-10 (composition-rand-Left-10 (select state-left state-length-left-old)
)
)
)
(declare-const randval-left-10 Bits_m)
(assert (= randval-left-10 (__sample-rand-Left-Bits_m 10 (+ 0 randctr-left-10)
)
)
)
(declare-const randctr-left-11 Int)
(assert (= randctr-left-11 (composition-rand-Left-11 (select state-left state-length-left-old)
)
)
)
(declare-const randval-left-11 Bits_n)
(assert (= randval-left-11 (__sample-rand-Left-Bits_n 11 (+ 0 randctr-left-11)
)
)
)
(declare-const randctr-left-12 Int)
(assert (= randctr-left-12 (composition-rand-Left-12 (select state-left state-length-left-old)
)
)
)
(declare-const randval-left-12 Bits_p)
(assert (= randval-left-12 (__sample-rand-Left-Bits_p 12 (+ 0 randctr-left-12)
)
)
)
(declare-const randctr-right-1 Int)
(assert (= randctr-right-1 (composition-rand-Right-1 (select state-right state-length-right-old)
)
)
)
(declare-const randval-right-1 Bits_n)
(assert (= randval-right-1 (__sample-rand-Right-Bits_n 1 (+ 0 randctr-right-1)
)
)
)
(declare-const randctr-right-2 Int)
(assert (= randctr-right-2 (composition-rand-Right-2 (select state-right state-length-right-old)
)
)
)
(declare-const randval-right-2 Bits_n)
(assert (= randval-right-2 (__sample-rand-Right-Bits_n 2 (+ 0 randctr-right-2)
)
)
)
(declare-const randctr-right-3 Int)
(assert (= randctr-right-3 (composition-rand-Right-3 (select state-right state-length-right-old)
)
)
)
(declare-const randval-right-3 Bits_n)
(assert (= randval-right-3 (__sample-rand-Right-Bits_n 3 (+ 0 randctr-right-3)
)
)
)
(declare-const randctr-right-4 Int)
(assert (= randctr-right-4 (composition-rand-Right-4 (select state-right state-length-right-old)
)
)
)
(declare-const randval-right-4 Bits_n)
(assert (= randval-right-4 (__sample-rand-Right-Bits_n 4 (+ 0 randctr-right-4)
)
)
)
(declare-const randctr-right-5 Int)
(assert (= randctr-right-5 (composition-rand-Right-5 (select state-right state-length-right-old)
)
)
)
(declare-const randval-right-5 Bits_n)
(assert (= randval-right-5 (__sample-rand-Right-Bits_n 5 (+ 0 randctr-right-5)
)
)
)
(declare-const randctr-right-6 Int)
(assert (= randctr-right-6 (composition-rand-Right-6 (select state-right state-length-right-old)
)
)
)
(declare-const randval-right-6 Bits_n)
(assert (= randval-right-6 (__sample-rand-Right-Bits_n 6 (+ 0 randctr-right-6)
)
)
)
(declare-const randctr-right-7 Int)
(assert (= randctr-right-7 (composition-rand-Right-7 (select state-right state-length-right-old)
)
)
)
(declare-const randval-right-7 Bits_n)
(assert (= randval-right-7 (__sample-rand-Right-Bits_n 7 (+ 0 randctr-right-7)
)
)
)
(declare-const randctr-right-8 Int)
(assert (= randctr-right-8 (composition-rand-Right-8 (select state-right state-length-right-old)
)
)
)
(declare-const randval-right-8 Bits_n)
(assert (= randval-right-8 (__sample-rand-Right-Bits_n 8 (+ 0 randctr-right-8)
)
)
)
(declare-const randctr-right-9 Int)
(assert (= randctr-right-9 (composition-rand-Right-9 (select state-right state-length-right-old)
)
)
)
(declare-const randval-right-9 Bits_n)
(assert (= randval-right-9 (__sample-rand-Right-Bits_n 9 (+ 0 randctr-right-9)
)
)
)
(declare-const randctr-right-10 Int)
(assert (= randctr-right-10 (composition-rand-Right-10 (select state-right state-length-right-old)
)
)
)
(declare-const randval-right-10 Bits_n)
(assert (= randval-right-10 (__sample-rand-Right-Bits_n 10 (+ 0 randctr-right-10)
)
)
)
(declare-const randctr-right-11 Int)
(assert (= randctr-right-11 (composition-rand-Right-11 (select state-right state-length-right-old)
)
)
)
(declare-const randval-right-11 Bits_n)
(assert (= randval-right-11 (__sample-rand-Right-Bits_n 11 (+ 0 randctr-right-11)
)
)
)
(declare-const randctr-right-12 Int)
(assert (= randctr-right-12 (composition-rand-Right-12 (select state-right state-length-right-old)
)
)
)
(declare-const randval-right-12 Bits_n)
(assert (= randval-right-12 (__sample-rand-Right-Bits_n 12 (+ 0 randctr-right-12)
)
)
)
(declare-const randctr-right-13 Int)
(assert (= randctr-right-13 (composition-rand-Right-13 (select state-right state-length-right-old)
)
)
)
(declare-const randval-right-13 Bits_n)
(assert (= randval-right-13 (__sample-rand-Right-Bits_n 13 (+ 0 randctr-right-13)
)
)
)
(declare-const randctr-right-14 Int)
(assert (= randctr-right-14 (composition-rand-Right-14 (select state-right state-length-right-old)
)
)
)
(declare-const randval-right-14 Bits_n)
(assert (= randval-right-14 (__sample-rand-Right-Bits_n 14 (+ 0 randctr-right-14)
)
)
)
(declare-const randctr-right-15 Int)
(assert (= randctr-right-15 (composition-rand-Right-15 (select state-right state-length-right-old)
)
)
)
(declare-const randval-right-15 Bits_n)
(assert (= randval-right-15 (__sample-rand-Right-Bits_n 15 (+ 0 randctr-right-15)
)
)
)
(declare-const randctr-right-16 Int)
(assert (= randctr-right-16 (composition-rand-Right-16 (select state-right state-length-right-old)
)
)
)
(declare-const randval-right-16 Bits_n)
(assert (= randval-right-16 (__sample-rand-Right-Bits_n 16 (+ 0 randctr-right-16)
)
)
)
